WARNING: for repeatability, setting FPU to use double precision
============================[ Problem Statistics ]=============================
|                                                                             |
|  Number of variables:            50                                         |
|  Number of clauses:             218                                         |
|  Parse time:                   0.00 s                                       |
|                                                                             |
============================[ Search Statistics ]==============================
| Conflicts |          ORIGINAL         |          LEARNT          | Progress |
|           |    Vars  Clauses Literals |    Limit  Clauses Lit/Cl |          |
===============================================================================
===============================================================================
restarts              : 1
conflicts             : 46             (328571 /sec)
decisions             : 69             (0.00 % random) (492857 /sec)
propagations          : 585            (4178571 /sec)
conflict literals     : 176            (11.56 % deleted)
Memory used           : 20.00 MB
CPU time              : 0.00014 s

SATISFIABLE
